NAME 
ROWS
 N  OBJ
 L  R0      
 E  R1      
 E  R2      
 E  R3      
 E  R4      
 E  R5      
 E  R6      
 E  R7      
 E  R8      
 E  R9      
 E  R10     
 E  R11     
 E  R12     
 E  R13     
 E  R14     
 E  R15     
 E  R16     
 E  R17     
 E  R18     
 E  R19     
 E  R20     
 E  R21     
 E  R22     
 E  R23     
 E  R24     
 E  R25     
 E  R26     
 E  R27     
 E  R28     
 E  R29     
 E  R30     
COLUMNS
    MARKER    'MARKER'                 'INTORG'
    I0(3)     OBJ       194
    I0(3)     R0        -68
    I0(3)     R1        8
    I0(3)     R30       1
    I1(3)     OBJ       1
    I1(3)     R0        -138
    I1(3)     R2        9
    I1(3)     R30       1
    I2(3)     OBJ       27
    I2(3)     R0        -120
    I2(3)     R3        3
    I2(3)     R30       1
    I3(3)     OBJ       -94
    I3(3)     R0        -6
    I3(3)     R4        11
    I3(3)     R30       1
    I4(2)     OBJ       165
    I4(2)     R0        -73
    I4(2)     R30       1
    I5(3)     OBJ       135
    I5(3)     R0        122
    I5(3)     R6        14
    I5(3)     R30       1
    I6(3)     OBJ       162
    I6(3)     R0        119
    I6(3)     R7        8
    I6(3)     R30       1
    I7(3)     OBJ       136
    I7(3)     R0        -53
    I7(3)     R8        9
    I7(3)     R30       1
    I8(3)     OBJ       118
    I8(3)     R0        -115
    I8(3)     R9        8
    I8(3)     R30       1
    I9(3)     OBJ       81
    I9(3)     R0        -76
    I9(3)     R10       1
    I9(3)     R30       1
    I10(3)    OBJ       -199
    I10(3)    R0        84
    I10(3)    R11       3
    I10(3)    R30       1
    I11(3)    OBJ       -125
    I11(3)    R0        -157
    I11(3)    R12       2
    I11(3)    R30       1
    I12(3)    OBJ       133
    I12(3)    R0        -143
    I12(3)    R13       8
    I12(3)    R30       1
    I13(3)    OBJ       -15
    I13(3)    R0        189
    I13(3)    R14       19
    I13(3)    R30       1
    I14(3)    OBJ       -174
    I14(3)    R0        106
    I14(3)    R15       14
    I14(3)    R30       1
    I15(3)    OBJ       -39
    I15(3)    R0        -174
    I15(3)    R16       4
    I15(3)    R30       1
    I16(3)    OBJ       36
    I16(3)    R0        134
    I16(3)    R17       11
    I16(3)    R30       1
    I17(3)    OBJ       -90
    I17(3)    R0        -81
    I17(3)    R18       13
    I17(3)    R30       1
    I18(2)    OBJ       124
    I18(2)    R0        96
    I18(2)    R30       1
    I19(3)    OBJ       64
    I19(3)    R0        126
    I19(3)    R20       6
    I19(3)    R30       1
    I20(3)    OBJ       -70
    I20(3)    R0        34
    I20(3)    R21       7
    I20(3)    R30       1
    I21(3)    OBJ       4
    I21(3)    R0        18
    I21(3)    R22       15
    I21(3)    R30       1
    I22(3)    OBJ       -169
    I22(3)    R0        -137
    I22(3)    R23       12
    I22(3)    R30       1
    I23(3)    OBJ       189
    I23(3)    R0        66
    I23(3)    R24       17
    I23(3)    R30       1
    I24(3)    OBJ       -75
    I24(3)    R0        123
    I24(3)    R25       13
    I24(3)    R30       1
    I25(3)    OBJ       -185
    I25(3)    R0        141
    I25(3)    R26       6
    I25(3)    R30       1
    I26(2)    OBJ       142
    I26(2)    R0        195
    I26(2)    R30       1
    I27(3)    OBJ       -86
    I27(3)    R0        -71
    I27(3)    R28       18
    I27(3)    R30       1
    MARKER    'MARKER'                 'INTEND'
    C28(28)   OBJ       1
    C28(28)   R0        8
    C28(28)   R1        8
    C28(28)   R2        2
    C28(28)   R3        10
    C28(28)   R4        17
    C28(28)   R5        14
    C28(28)   R6        5
    C28(28)   R7        15
    C28(28)   R8        7
    C28(28)   R10       11
    C28(28)   R11       16
    C28(28)   R13       13
    C28(28)   R14       5
    C28(28)   R15       5
    C28(28)   R16       14
    C28(28)   R17       13
    C28(28)   R18       11
    C28(28)   R19       11
    C28(28)   R20       3
    C28(28)   R21       12
    C28(28)   R22       9
    C28(28)   R23       11
    C28(28)   R24       -1
    C28(28)   R25       13
    C28(28)   R26       4
    C28(28)   R27       4
    C28(28)   R28       6
    C28(28)   R29       10
    C29(28)   OBJ       -5
    C29(28)   R0        -7
    C29(28)   R1        15
    C29(28)   R2        6
    C29(28)   R4        3
    C29(28)   R5        4
    C29(28)   R7        4
    C29(28)   R8        12
    C29(28)   R9        17
    C29(28)   R10       9
    C29(28)   R11       13
    C29(28)   R12       3
    C29(28)   R13       9
    C29(28)   R14       17
    C29(28)   R15       17
    C29(28)   R16       1
    C29(28)   R17       13
    C29(28)   R18       11
    C29(28)   R19       16
    C29(28)   R20       17
    C29(28)   R21       6
    C29(28)   R22       11
    C29(28)   R23       14
    C29(28)   R24       11
    C29(28)   R25       15
    C29(28)   R26       10
    C29(28)   R27       8
    C29(28)   R28       6
    C29(28)   R29       4
    C30(1)    R1        1
    C31(1)    R2        1
    C32(1)    R3        1
    C33(1)    R4        1
    C34(1)    R5        1
    C35(1)    R6        1
    C36(1)    R7        1
    C37(1)    R8        1
    C38(1)    R9        1
    C39(1)    R10       1
    C40(1)    R11       1
    C41(1)    R12       1
    C42(1)    R13       1
    C43(1)    R14       1
    C44(1)    R15       1
    C45(1)    R16       1
    C46(1)    R17       1
    C47(1)    R18       1
    C48(1)    R19       1
    C49(1)    R20       1
    C50(1)    R21       1
    C51(1)    R22       1
    C52(1)    R23       1
    C53(1)    R24       1
    C54(1)    R25       1
    C55(1)    R26       1
    C56(1)    R27       1
    C57(1)    R28       1
    C58(1)    R29       1
    C59(1)    R30       1
RHS
    RHS1      R0        -1.5266666666666666e+01
    RHS1      R1        53
    RHS1      R2        58
    RHS1      R3        65
    RHS1      R4        89
    RHS1      R5        85
    RHS1      R6        92
    RHS1      R7        55
    RHS1      R8        85
    RHS1      R9        82
    RHS1      R10       73
    RHS1      R11       73
    RHS1      R12       95
    RHS1      R13       81
    RHS1      R14       66
    RHS1      R15       85
    RHS1      R16       55
    RHS1      R17       85
    RHS1      R18       95
    RHS1      R19       52
    RHS1      R20       94
    RHS1      R21       85
    RHS1      R22       64
    RHS1      R23       70
    RHS1      R24       79
    RHS1      R25       50
    RHS1      R26       58
    RHS1      R27       88
    RHS1      R28       85
    RHS1      R29       68
    RHS1      R30       9
BOUNDS
 UP BND1      I0(3)     1
 UP BND1      I1(3)     1
 UP BND1      I2(3)     1
 UP BND1      I3(3)     1
 UP BND1      I4(2)     1
 UP BND1      I5(3)     1
 UP BND1      I6(3)     1
 UP BND1      I7(3)     1
 UP BND1      I8(3)     1
 UP BND1      I9(3)     1
 UP BND1      I10(3)    1
 UP BND1      I11(3)    1
 UP BND1      I12(3)    1
 UP BND1      I13(3)    1
 UP BND1      I14(3)    1
 UP BND1      I15(3)    1
 UP BND1      I16(3)    1
 UP BND1      I17(3)    1
 UP BND1      I18(2)    1
 UP BND1      I19(3)    1
 UP BND1      I20(3)    1
 UP BND1      I21(3)    1
 UP BND1      I22(3)    1
 UP BND1      I23(3)    1
 UP BND1      I24(3)    1
 UP BND1      I25(3)    1
 UP BND1      I26(2)    1
 UP BND1      I27(3)    1
ENDATA
